%chk=H2O.chk
# p opt pbe1pbe/aug-cc-pvtz

water

0 1
O		-5.47845629	-2.97275327	-1.22615776
H		-4.51845629	-2.97275327	-1.22615776
H		-5.79891088	-2.06781744	-1.22615776



